c This cnf file is generated with the following input: k = 5, n = 150, r = 0.2
p cnf 150 30
-25 -138 -11 0
20 -103 41 0
-85 150 58 0
16 40 89 0
-103 137 91 0
-35 70 -136 0
-6 -9 137 0
-130 55 92 0
128 81 129 0
-97 -21 -22 0
2 -24 -73 0
-149 132 -9 0
7 120 -58 0
130 37 -13 0
-49 -4 131 0
1 -20 -8 0
17 -131 84 0
-50 -3 87 0
-34 129 55 0
97 87 -26 0
65 -103 -57 0
98 -3 -53 0
-130 6 141 0
33 115 37 0
-117 -69 106 0
4 119 -73 0
130 -37 -87 0
49 18 -70 0
-19 -52 105 0
-133 86 -28 0
